(set-logic QF_S)
(declare-fun var0 () String)
(declare-fun var1 () String)
(declare-fun var2 () String)
(declare-fun var3 () Int)
(declare-fun var4 () String)
(declare-fun var5 () Int)
(declare-fun var6 () Int)
(declare-fun var7 () Int)
(assert (str.contains var0 var1))
(assert (< (str.to.int (str.at var2 var3)) (str.len var4)))
(assert (str.suffixof (str.replace var0 var4 var1) (str.replace var1 var0 var4)))
(assert (str.suffixof (str.substr var1 var5 86) (str.substr var0 var6 var7)))
(check-sat)